100
128
40
4
41
35
9
46
23
3
46
8
41
24
33
30
15
21
25
43
23
12
42
16
45
13
17
10
24
57
28
12
12
15
26
53
38
12
64
32
19
1
29
1
24
20
24
33
43
28
14
24
32
31
16
25
62
17
16
19
12
22
37
32
38
42
47
62
3
27
61
23
44
64
32
45
2
2
34
2
43
35
35
31
39
37
52
42
7
1
40
64
64
43
48
63
64
38
37
42
36
48